p edge 60 160
e 1 21
e 1 22
e 1 23
e 1 24
e 1 29
e 1 30
e 1 31
e 1 32
e 2 25
e 2 26
e 2 27
e 2 28
e 2 33
e 2 34
e 2 35
e 2 36
e 3 21
e 3 22
e 3 25
e 3 26
e 3 37
e 3 38
e 3 39
e 3 40
e 4 23
e 4 24
e 4 27
e 4 28
e 4 41
e 4 42
e 4 43
e 4 44
e 5 21
e 5 23
e 5 25
e 5 27
e 5 45
e 5 46
e 5 47
e 5 48
e 6 22
e 6 24
e 6 26
e 6 28
e 6 49
e 6 50
e 6 51
e 6 52
e 7 21
e 7 24
e 7 26
e 7 27
e 7 53
e 7 54
e 7 55
e 7 56
e 8 22
e 8 23
e 8 25
e 8 28
e 8 57
e 8 58
e 8 59
e 8 60
e 9 29
e 9 30
e 9 33
e 9 34
e 9 37
e 9 38
e 9 41
e 9 42
e 10 31
e 10 32
e 10 35
e 10 36
e 10 39
e 10 40
e 10 43
e 10 44
e 11 29
e 11 31
e 11 33
e 11 35
e 11 45
e 11 46
e 11 49
e 11 50
e 12 30
e 12 32
e 12 34
e 12 36
e 12 47
e 12 48
e 12 51
e 12 52
e 13 29
e 13 32
e 13 34
e 13 35
e 13 53
e 13 54
e 13 57
e 13 58
e 14 30
e 14 31
e 14 33
e 14 36
e 14 55
e 14 56
e 14 59
e 14 60
e 15 37
e 15 39
e 15 41
e 15 43
e 15 45
e 15 47
e 15 49
e 15 51
e 16 38
e 16 40
e 16 42
e 16 44
e 16 46
e 16 48
e 16 50
e 16 52
e 17 37
e 17 40
e 17 42
e 17 43
e 17 53
e 17 55
e 17 57
e 17 59
e 18 38
e 18 39
e 18 41
e 18 44
e 18 54
e 18 56
e 18 58
e 18 60
e 19 45
e 19 48
e 19 50
e 19 51
e 19 53
e 19 56
e 19 58
e 19 59
e 20 46
e 20 47
e 20 49
e 20 52
e 20 54
e 20 55
e 20 57
e 20 60
